
******************************************************************************
This program contains Ipopt, a library for large-scale nonlinear optimization.
 Ipopt is released as open source code under the Eclipse Public License (EPL).
         For more information visit https://github.com/coin-or/Ipopt
******************************************************************************

This is Ipopt version 3.14.4, running with linear solver MUMPS 5.4.1.

Number of nonzeros in equality constraint Jacobian...:    19061
Number of nonzeros in inequality constraint Jacobian.:     5912
Number of nonzeros in Lagrangian Hessian.............:        0

Total number of variables............................:     6568
                     variables with only lower bounds:     1517
                variables with lower and upper bounds:        0
                     variables with only upper bounds:        0
Total number of equality constraints.................:     5217
Total number of inequality constraints...............:     1796
        inequality constraints with only lower bounds:        0
   inequality constraints with lower and upper bounds:        0
        inequality constraints with only upper bounds:     1796

iter    objective    inf_pr   inf_du lg(mu)  ||d||  lg(rg) alpha_du alpha_pr  ls
   0  4.5910574e+02 6.83e+00 2.96e+00   0.0 0.00e+00    -  0.00e+00 0.00e+00   0
   1  6.8178999e+02 6.12e+00 9.64e+00  -0.6 4.13e+00    -  2.11e-02 1.03e-01f  1
   2  1.4219723e+03 5.82e+00 5.35e+01   0.2 6.00e+00    -  3.84e-01 4.96e-02f  1
   3  3.4306275e+03 3.86e+00 2.76e+01   0.2 3.37e+00    -  1.99e-01 3.38e-01f  1
   4  2.0451230e+03 1.86e+00 1.46e+01  -0.5 1.69e+00    -  3.79e-01 5.18e-01f  1
   5  1.8048580e+03 1.44e+00 1.40e+01  -0.5 3.45e+00    -  3.47e-01 2.25e-01f  1
   6  2.0982742e+03 5.10e-01 1.52e+01  -0.4 1.02e+00    -  5.90e-01 6.46e-01f  1
   7  2.2222455e+03 2.14e-01 8.13e+01  -0.4 1.45e+00    -  7.28e-01 5.81e-01f  1
   8  1.7327693e+03 1.02e-01 1.30e+02  -0.7 1.30e+00    -  6.81e-01 5.22e-01f  1
   9  2.5701766e+03 4.55e-02 2.00e+03  -0.3 1.09e+00    -  3.64e-01 9.90e-01h  1
iter    objective    inf_pr   inf_du lg(mu)  ||d||  lg(rg) alpha_du alpha_pr  ls
  10  1.3755921e+03 2.22e-02 1.25e+04  -0.7 7.51e-01    -  1.00e+00 9.05e-01f  1
  11  1.3207337e+03 1.26e-02 1.76e+05  -0.7 7.26e-01    -  6.15e-01 4.94e-01f  1
  12  1.0993949e+03 5.21e-03 5.59e+05  -1.0 1.75e-01    -  1.00e+00 5.93e-01f  1
  13  8.6858712e+02 9.79e-03 4.82e+05  -1.0 3.74e-01    -  1.00e+00 8.25e-01f  1
  14  1.0263925e+03 4.12e-03 2.70e+06  -0.7 3.56e-01    -  9.58e-01 6.99e-01f  1
  15  8.8427465e+02 4.64e-03 1.76e+05  -1.0 4.96e-01    -  1.00e+00 5.67e-01f  1
  16  1.1609147e+03 2.79e-03 8.08e+05  -0.7 2.08e-01    -  9.15e-01 1.00e+00f  1
  17  9.2495055e+02 3.61e-03 2.39e+06  -0.9 3.09e-01    -  1.00e+00 6.87e-01f  1
  18  7.1286787e+02 4.24e-03 2.74e+06  -1.1 3.81e-01    -  1.00e+00 6.10e-01f  1
  19  9.5378152e+02 1.22e-02 2.83e+05  -0.8 3.27e-01    -  8.45e-01 8.23e-01f  1
iter    objective    inf_pr   inf_du lg(mu)  ||d||  lg(rg) alpha_du alpha_pr  ls
  20  8.0585993e+02 6.10e-03 6.53e+05  -0.9 2.32e-01    -  7.77e-01 1.00e+00f  1
  21  6.2481942e+02 1.46e-03 7.41e+05  -1.1 1.47e-01    -  1.00e+00 8.45e-01f  1
  22  5.2412287e+02 1.63e-03 1.41e+06  -1.3 3.53e-01    -  1.00e+00 6.11e-01f  1
  23  6.9939721e+02 4.84e-03 4.55e+00  -1.0 1.93e-01    -  1.00e+00 1.00e+00f  1
  24  6.2053590e+02 6.42e-03 3.74e+03  -1.1 2.31e-01    -  9.76e-01 9.78e-01h  1
  25  5.8473281e+02 3.61e-03 2.87e+00  -1.1 2.15e-01    -  1.00e+00 1.00e+00f  1
  26  4.5195239e+02 1.26e-03 5.61e+05  -1.4 2.20e-01    -  9.96e-01 8.56e-01f  1
  27  3.9302248e+02 3.09e-03 3.88e+00  -1.4 3.97e-01    -  1.00e+00 1.00e+00f  1
  28  3.6519530e+02 1.35e-03 8.68e+05  -1.6 4.40e-01    -  1.00e+00 4.23e-01f  1
  29  3.2535147e+02 7.41e-04 1.29e+06  -2.0 1.97e-01    -  1.00e+00 4.48e-01f  1
iter    objective    inf_pr   inf_du lg(mu)  ||d||  lg(rg) alpha_du alpha_pr  ls
  30  3.0573340e+02 5.33e-04 1.35e+06  -4.0 4.57e-01    -  4.32e-01 1.62e-01f  1
  31  4.0248154e+02 3.06e-03 8.93e+05  -1.2 6.52e-01    -  3.87e-01 4.02e-01f  1
  32  3.4934869e+02 2.61e-03 3.03e+05  -1.6 2.65e-01    -  1.00e+00 6.86e-01f  1
  33  3.3773478e+02 3.70e-03 1.62e+05  -1.6 3.43e-01    -  6.79e-01 4.65e-01h  1
  34  3.2406881e+02 1.03e-03 2.53e+01  -1.6 8.24e-02    -  6.13e-01 1.00e+00f  1
  35  2.8098592e+02 5.29e-04 5.52e+05  -2.1 2.03e-01    -  9.41e-01 6.27e-01f  1
  36  2.7325177e+02 1.34e-03 5.63e+04  -1.9 3.08e-01    -  1.00e+00 7.77e-01H  1
  37  2.4970064e+02 6.39e-04 2.60e+05  -2.1 1.61e-01    -  1.00e+00 5.16e-01f  1
  38  2.3073795e+02 2.39e-03 2.50e+05  -2.4 3.11e-01    -  8.03e-01 5.19e-01f  1
  39  2.1699415e+02 1.11e-03 2.02e+05  -2.6 1.95e-01    -  1.00e+00 5.43e-01f  1
iter    objective    inf_pr   inf_du lg(mu)  ||d||  lg(rg) alpha_du alpha_pr  ls
  40  2.0819317e+02 3.03e-04 9.87e+04  -2.8 1.22e-01    -  6.15e-01 5.42e-01f  1
  41  2.0520687e+02 2.14e-04 6.54e+04  -2.7 1.11e-01    -  6.21e-01 3.38e-01f  1
  42  2.0310379e+02 2.06e-04 8.84e+04  -2.9 2.33e-01    -  5.20e-01 1.45e-01f  1
  43  2.0193028e+02 6.08e-04 1.94e+04  -2.4 5.90e-01    -  4.58e-01 2.12e-01f  1
  44  1.9837747e+02 1.69e-03 2.68e+04  -2.8 9.50e-01    -  3.19e-01 2.17e-01f  1
  45  2.0084064e+02 1.16e-03 2.25e+05  -2.1 8.27e-01    -  5.26e-01 1.16e-01f  1
  46  2.0558747e+02 1.39e-03 4.71e+04  -2.4 1.94e-01    -  8.04e-01 7.71e-01h  1
  47  1.9882455e+02 5.54e-04 2.34e+03  -2.5 8.02e-02    -  8.75e-01 7.43e-01f  1
  48  1.9284380e+02 2.74e-04 4.96e+04  -2.8 5.90e-02    -  9.91e-01 6.87e-01f  1
  49  1.8842272e+02 1.64e-04 5.48e+04  -3.0 7.01e-02    -  1.00e+00 5.90e-01f  1
iter    objective    inf_pr   inf_du lg(mu)  ||d||  lg(rg) alpha_du alpha_pr  ls
  50  2.2482854e+02 3.86e-03 2.02e+05  -2.2 1.94e-01    -  6.59e-01 1.00e+00f  1
  51  2.0647634e+02 2.02e-03 3.39e+04  -2.3 1.61e-01    -  1.00e+00 7.80e-01f  1
  52  2.0603149e+02 1.08e-03 8.43e+03  -2.3 1.41e-01    -  7.14e-01 7.51e-01h  1
  53  2.0325625e+02 6.39e-04 3.99e+03  -2.3 5.24e-02    -  9.94e-01 5.27e-01f  1
  54  2.0283152e+02 1.14e-04 8.60e+01  -2.3 3.30e-02    -  1.00e+00 9.78e-01f  1
  55  1.9147434e+02 1.16e-04 4.00e+04  -2.6 7.74e-02    -  1.00e+00 8.63e-01f  1
  56  1.8921727e+02 6.65e-04 4.21e+04  -2.7 4.03e-01    -  9.20e-01 3.36e-01f  2
  57  1.8789575e+02 5.66e-04 3.58e+04  -2.7 5.32e-01    -  7.44e-01 1.77e-01f  2
  58  1.8833735e+02 7.63e-04 3.72e+04  -2.4 1.11e+00    -  4.71e-01 1.78e-01f  1
  59  1.8741428e+02 8.06e-04 2.08e+04  -2.6 1.17e+00    -  2.82e-01 1.32e-01f  2
iter    objective    inf_pr   inf_du lg(mu)  ||d||  lg(rg) alpha_du alpha_pr  ls
  60  1.8981051e+02 6.11e-04 1.29e+05  -2.3 6.01e-01    -  7.39e-01 2.43e-01f  1
  61  1.8929956e+02 4.92e-04 2.98e+04  -2.5 1.79e-01    -  7.10e-01 4.02e-01f  2
  62  1.8754514e+02 1.78e-04 4.61e+03  -2.5 6.82e-02    -  1.00e+00 6.82e-01f  1
  63  1.9526742e+02 2.51e-04 3.87e+04  -2.2 1.01e-01    -  9.83e-01 8.26e-01f  1
  64  1.9236362e+02 2.07e-04 1.55e+04  -2.4 1.22e-01    -  1.00e+00 8.05e-01f  1
  65  2.0088297e+02 3.16e-03 1.75e+05  -2.1 7.87e-01    -  9.19e-01 4.13e-01f  1
  66  2.1128143e+02 3.66e-04 1.15e+01  -2.3 5.83e-01    -  1.00e+00 1.00e+00H  1
  67  1.9755338e+02 2.15e-03 7.63e+00  -2.3 1.93e-01    -  6.83e-01 7.59e-01f  1
  68  1.9412704e+02 9.94e-04 1.09e+01  -2.3 2.37e-01    -  3.80e-01 6.51e-01f  1
  69  1.9345823e+02 5.00e-04 8.51e+00  -2.3 7.38e-02    -  1.00e+00 5.78e-01f  1
iter    objective    inf_pr   inf_du lg(mu)  ||d||  lg(rg) alpha_du alpha_pr  ls
  70  1.9304807e+02 5.14e-05 1.64e+00  -2.3 5.06e-02    -  1.00e+00 1.00e+00f  1
  71  2.1787922e+02 2.20e-03 1.14e+05  -1.9 3.35e-01    -  8.38e-01 6.77e-01f  1
  72  2.1000561e+02 1.57e-03 3.69e+00  -2.1 2.29e-01    -  1.00e+00 1.00e+00f  1
  73  2.0686127e+02 8.10e-04 6.65e+00  -2.1 1.16e-01    -  8.72e-01 4.38e-01f  1
  74  2.0627367e+02 4.06e-05 8.31e-01  -2.1 2.56e-02    -  1.00e+00 1.00e+00f  1
  75  1.9282145e+02 5.25e-05 1.69e+04  -2.3 3.83e-02    -  1.00e+00 9.57e-01f  1
  76  1.8340291e+02 7.01e-04 3.75e+04  -2.4 1.65e-01    -  1.00e+00 7.38e-01f  1
  77  1.9008894e+02 5.02e-04 1.40e+05  -2.2 2.70e-01    -  1.00e+00 5.13e-01f  1
  78  1.8886522e+02 1.11e-03 4.82e+04  -2.3 6.00e-01    -  5.44e-01 2.58e-01f  1
  79  1.8800686e+02 7.89e-04 2.04e+04  -2.3 1.77e-01    -  8.72e-01 2.31e-01f  3
iter    objective    inf_pr   inf_du lg(mu)  ||d||  lg(rg) alpha_du alpha_pr  ls
  80  1.8643665e+02 2.53e-04 1.10e+04  -2.3 4.84e-02    -  1.00e+00 6.54e-01f  1
  81  1.7631143e+02 2.44e-04 9.30e+04  -2.7 9.37e-02    -  1.00e+00 7.01e-01f  1
  82  1.7696058e+02 2.31e-04 1.42e+05  -2.3 3.03e-01    -  1.00e+00 1.08e-01f  1
  83  1.7629209e+02 1.88e-04 5.92e+03  -2.5 2.68e-01    -  1.00e+00 3.50e-01f  1
  84  2.2006223e+02 8.82e-03 5.43e+05  -1.8 1.07e+00    -  8.45e-01 4.20e-01f  1
  85  2.0998298e+02 5.50e-03 1.76e+05  -2.1 2.06e-01    -  7.02e-01 3.95e-01f  1
  86  2.0404182e+02 3.63e-03 1.12e+05  -2.1 3.99e-01    -  3.39e-01 4.70e-01f  1
  87  2.0667211e+02 2.35e-03 3.73e+04  -2.1 1.37e-01    -  6.58e-01 7.34e-01h  1
  88  2.0232233e+02 7.33e-04 1.23e+00  -2.1 5.55e-02    -  1.00e+00 1.00e+00f  1
  89  2.0237428e+02 4.04e-05 5.64e-01  -2.1 3.30e-02    -  1.00e+00 1.00e+00f  1
iter    objective    inf_pr   inf_du lg(mu)  ||d||  lg(rg) alpha_du alpha_pr  ls
  90  1.9080900e+02 7.17e-05 2.45e+05  -2.5 9.24e-02    -  9.94e-01 5.35e-01f  1
  91  1.7863056e+02 5.57e-04 4.48e+00  -2.4 1.09e-01    -  1.00e+00 1.00e+00f  1
  92  1.7974569e+02 4.52e-04 3.54e+00  -2.4 1.04e-01    -  7.55e-01 1.00e+00f  1
  93  1.7955819e+02 2.23e-04 2.00e+00  -2.4 6.06e-02    -  1.00e+00 9.42e-01f  1
  94  1.7151461e+02 1.32e-04 9.11e+04  -2.9 8.38e-02    -  1.00e+00 6.38e-01f  1
  95  1.6770398e+02 2.96e-04 6.34e+04  -3.0 2.68e-01    -  1.00e+00 5.22e-01f  1
  96  1.6648813e+02 6.69e-04 7.14e+04  -3.3 3.98e-01    -  1.00e+00 2.93e-01f  1
  97  1.6424596e+02 1.58e-04 2.79e+04  -3.2 1.02e-01    -  2.21e-01 7.01e-01f  1
  98  1.6627041e+02 3.85e-04 1.39e+04  -2.9 1.39e-01    -  8.29e-01 1.00e+00f  1
  99  1.6562376e+02 2.33e-04 1.52e+04  -3.0 9.84e-02    -  8.38e-01 4.50e-01f  2
iter    objective    inf_pr   inf_du lg(mu)  ||d||  lg(rg) alpha_du alpha_pr  ls
 100  1.6362589e+02 1.69e-04 6.56e+04  -3.6 8.84e-02    -  1.00e+00 3.61e-01f  1
 101  1.6326942e+02 4.13e-04 4.56e+04  -3.8 2.70e-01    -  1.00e+00 3.70e-01f  1
 102  1.6069379e+02 1.13e-04 1.52e+04  -3.8 3.53e-02    -  1.00e+00 6.77e-01f  1
 103  1.5977859e+02 2.51e-05 4.20e+03  -4.0 2.03e-02    -  1.00e+00 7.86e-01f  1
 104  1.5954325e+02 1.91e-05 7.21e+02  -4.0 2.08e-02    -  1.00e+00 8.28e-01f  1
 105  1.5942889e+02 3.74e-05 2.68e+02  -4.0 4.33e-02    -  7.96e-01 6.28e-01f  1
 106  1.5975008e+02 5.75e-05 2.68e+04  -3.4 2.00e-01    -  1.00e+00 2.16e-01f  1
 107  1.6000818e+02 1.79e-04 3.50e+03  -3.6 8.61e-02    -  8.33e-01 1.00e+00f  1
 108  1.5982910e+02 1.79e-04 3.11e+03  -3.6 4.13e-01    -  1.10e-01 1.37e-01f  1
 109  1.5972075e+02 1.75e-04 1.90e+03  -3.6 4.33e-01    -  3.89e-01 5.31e-02f  1
iter    objective    inf_pr   inf_du lg(mu)  ||d||  lg(rg) alpha_du alpha_pr  ls
 110  1.5954249e+02 1.91e-04 1.47e+03  -3.6 3.87e-01    -  2.27e-01 2.08e-01f  1
 111  1.5936961e+02 2.38e-04 7.70e+02  -3.6 6.23e-01    -  4.77e-01 1.71e-01f  1
 112  1.5953814e+02 2.22e-04 5.78e+03  -3.3 6.81e-01    -  3.39e-01 1.76e-01f  1
 113  1.5927592e+02 1.20e-04 1.08e+02  -3.6 2.67e-01    -  7.12e-01 2.84e-01f  1
 114  1.5905137e+02 9.36e-05 9.96e+03  -3.8 1.13e-01    -  1.00e+00 1.75e-01f  1
 115  1.5842981e+02 6.43e-05 7.42e+03  -4.0 5.82e-02    -  1.00e+00 5.38e-01f  1
 116  1.5814165e+02 6.45e-05 2.11e+03  -4.0 7.08e-02    -  1.00e+00 6.72e-01f  1
 117  1.5789769e+02 1.14e-05 7.81e-01  -4.0 2.02e-02    -  1.00e+00 1.00e+00f  1
 118  1.5787792e+02 4.91e-06 2.71e-01  -4.0 9.63e-03    -  1.00e+00 9.92e-01h  1
 119  1.5785854e+02 1.99e-06 2.25e-01  -4.0 5.96e-03    -  1.00e+00 1.00e+00h  1
iter    objective    inf_pr   inf_du lg(mu)  ||d||  lg(rg) alpha_du alpha_pr  ls
 120  1.5784183e+02 3.84e-06 4.54e-01  -4.0 1.48e-02    -  1.00e+00 1.00e+00f  1
 121  1.5782825e+02 9.61e-06 2.33e+00  -4.0 8.03e-02    -  1.00e+00 2.22e-01f  2
 122  1.5781807e+02 5.08e-06 2.11e+00  -4.0 6.26e-02    -  1.00e+00 2.50e-01f  3
 123  1.5781663e+02 1.06e-05 1.95e+00  -4.0 6.85e-02    -  1.00e+00 5.00e-01f  2
 124  1.5781480e+02 1.25e-05 2.08e+00  -4.0 4.15e-02    -  1.00e+00 5.00e-01f  2
 125  1.5779270e+02 1.15e-05 1.75e+00  -4.0 2.53e-02    -  1.00e+00 5.00e-01f  2
 126  1.5778463e+02 2.56e-06 2.43e-01  -4.0 9.86e-03    -  1.00e+00 1.00e+00h  1
 127  1.5777749e+02 2.16e-06 1.03e-01  -4.0 3.68e-03    -  1.00e+00 1.00e+00h  1
 128  1.5777413e+02 5.42e-07 1.19e-01  -4.0 6.25e-03    -  1.00e+00 1.00e+00h  1
 129  1.5777155e+02 1.39e-06 6.71e-01  -4.0 1.71e-02    -  1.00e+00 5.00e-01h  2
iter    objective    inf_pr   inf_du lg(mu)  ||d||  lg(rg) alpha_du alpha_pr  ls
 130  1.5776477e+02 2.09e-06 7.54e-01  -4.0 3.28e-02    -  1.00e+00 5.00e-01f  2
 131  1.5775938e+02 2.43e-06 1.25e+00  -4.0 8.99e-02    -  1.00e+00 1.08e-01f  4
 132  1.5775456e+02 2.82e-06 6.22e-01  -4.0 2.38e-02    -  1.00e+00 5.00e-01h  2
 133  1.5774977e+02 3.06e-06 1.76e+00  -4.0 3.34e-02    -  1.00e+00 2.50e-01f  3
 134  1.5774653e+02 2.36e-06 1.36e+00  -4.0 2.96e-02    -  1.00e+00 2.50e-01h  3
 135  1.5774275e+02 2.66e-06 5.13e-01  -4.0 1.88e-02    -  1.00e+00 5.00e-01h  2
 136  1.5773943e+02 1.97e-06 8.01e-01  -4.0 3.55e-02    -  1.00e+00 1.78e-01h  3
 137  1.5777477e+02 6.27e-09 1.13e-01  -4.0 1.41e-02    -  1.00e+00 1.00e+00H  1
 138  1.5774131e+02 4.91e-06 2.51e-01  -4.0 1.01e-02    -  1.00e+00 1.00e+00f  1
 139  1.5763318e+02 3.70e-06 1.22e-01  -4.1 9.86e-03    -  1.00e+00 1.00e+00h  1
iter    objective    inf_pr   inf_du lg(mu)  ||d||  lg(rg) alpha_du alpha_pr  ls
 140  1.5772799e+02 3.97e-07 1.47e-01  -4.0 3.82e-03    -  1.00e+00 1.00e+00h  1
 141  1.5772672e+02 1.77e-07 3.32e-02  -4.0 2.36e-03    -  1.00e+00 1.00e+00h  1
 142  1.5772677e+02 2.62e-07 1.02e-01  -4.0 3.21e-03    -  1.00e+00 1.00e+00h  1
 143  1.5762373e+02 6.09e-07 7.40e-02  -4.1 3.88e-03    -  1.00e+00 1.00e+00f  1
 144  1.5764566e+02 1.01e-06 1.57e+03  -4.0 3.20e-02    -  1.00e+00 2.15e-01f  3
 145  1.5761663e+02 1.30e-06 5.67e+02  -4.1 1.70e-02    -  1.00e+00 5.00e-01h  2
 146  1.5767457e+02 2.27e-06 1.07e+03  -4.0 1.09e-02    -  1.00e+00 5.00e-01f  2
 147  1.5759302e+02 2.46e-06 7.44e-02  -4.1 5.26e-03    -  1.00e+00 1.00e+00f  1
 148  1.5772409e+02 1.29e-06 2.55e-01  -4.0 4.54e-03    -  1.00e+00 1.00e+00f  1
 149  1.5761806e+02 9.21e-07 1.72e-02  -4.1 3.68e-03    -  1.00e+00 1.00e+00f  1
iter    objective    inf_pr   inf_du lg(mu)  ||d||  lg(rg) alpha_du alpha_pr  ls
 150  1.5771940e+02 1.59e-07 6.35e-02  -4.0 1.42e-03    -  1.00e+00 1.00e+00f  1
 151  1.5771903e+02 1.39e-07 3.90e-02  -4.0 1.01e-03    -  1.00e+00 1.00e+00h  1
 152  1.5771926e+02 4.42e-09 3.74e-03  -4.0 3.51e-04    -  1.00e+00 1.00e+00h  1
 153  1.5772003e+02 1.42e-08 3.19e-03  -4.0 6.70e-04    -  1.00e+00 1.00e+00h  1
 154  1.5761759e+02 2.02e-07 1.07e-01  -4.1 2.56e-03    -  1.00e+00 1.00e+00f  1
 155  1.5771964e+02 3.83e-07 1.40e-01  -4.0 2.73e-03    -  1.00e+00 1.00e+00f  1
 156  1.5761946e+02 5.29e-07 8.70e-02  -4.1 2.98e-03    -  1.00e+00 1.00e+00f  1
 157  1.5761671e+02 2.31e-07 1.53e-02  -4.1 2.23e-03    -  1.00e+00 1.00e+00h  1
 158  1.5771767e+02 3.39e-08 2.89e-02  -4.0 1.02e-03    -  1.00e+00 1.00e+00f  1
 159  1.5771913e+02 5.70e-08 6.31e-02  -4.0 1.72e-03    -  1.00e+00 1.00e+00h  1
iter    objective    inf_pr   inf_du lg(mu)  ||d||  lg(rg) alpha_du alpha_pr  ls
 160  1.5773628e+02 1.61e-09 7.23e-02  -4.0 1.43e-02    -  1.00e+00 1.00e+00H  1
 161  1.5762061e+02 3.09e-06 1.77e-01  -4.1 6.88e-03    -  1.00e+00 1.00e+00f  1
 162  1.5764715e+02 1.08e-08 1.36e-01  -4.1 1.41e-02    -  1.00e+00 1.00e+00H  1
 163  1.5771912e+02 2.92e-06 5.46e-02  -4.0 1.11e-02    -  1.00e+00 1.00e+00f  1
 164  1.5765584e+02 5.06e-09 1.23e-01  -4.1 8.94e-03    -  1.00e+00 1.00e+00H  1
 165  1.5761747e+02 4.69e-06 4.02e-02  -4.1 7.86e-03    -  1.00e+00 1.00e+00f  1
 166  1.5761542e+02 6.95e-08 6.01e-02  -4.1 1.08e-03    -  1.00e+00 1.00e+00h  1
 167  1.5771204e+02 8.96e-08 2.59e-02  -4.0 9.70e-04    -  1.00e+00 1.00e+00f  1
 168  1.5761801e+02 5.37e-08 3.61e-02  -4.1 8.70e-04    -  1.00e+00 1.00e+00f  1
 169  1.5761607e+02 3.04e-08 1.58e-02  -4.1 5.21e-04    -  1.00e+00 1.00e+00h  1
iter    objective    inf_pr   inf_du lg(mu)  ||d||  lg(rg) alpha_du alpha_pr  ls
 170  1.5771661e+02 3.62e-08 3.18e-02  -4.0 1.01e-03    -  1.00e+00 1.00e+00f  1
 171  1.5761540e+02 4.50e-08 2.68e-02  -4.1 1.07e-03    -  1.00e+00 1.00e+00f  1
 172  1.5771771e+02 8.59e-08 5.52e-02  -4.0 1.28e-03    -  1.00e+00 1.00e+00f  1
 173  1.5761493e+02 1.30e-07 5.35e-02  -4.1 1.30e-03    -  1.00e+00 1.00e+00f  1
 174  1.5771826e+02 8.00e-08 6.79e-02  -4.0 2.29e-03    -  1.00e+00 1.00e+00f  1
 175  1.5761447e+02 5.15e-08 3.06e-02  -4.1 1.60e-03    -  1.00e+00 1.00e+00f  1
 176  1.5771899e+02 1.24e-07 5.34e-02  -4.0 1.38e-03    -  1.00e+00 1.00e+00f  1
 177  1.5761428e+02 1.01e-07 1.01e-02  -4.1 1.41e-03    -  1.00e+00 1.00e+00f  1
 178  1.5771827e+02 4.87e-08 5.08e-02  -4.0 1.41e-03    -  1.00e+00 1.00e+00f  1
 179  1.5761432e+02 6.30e-08 2.82e-02  -4.1 1.40e-03    -  1.00e+00 1.00e+00f  1
iter    objective    inf_pr   inf_du lg(mu)  ||d||  lg(rg) alpha_du alpha_pr  ls
 180  1.5772016e+02 2.85e-07 8.18e-02  -4.0 2.11e-03    -  1.00e+00 1.00e+00f  1
 181  1.5761415e+02 2.21e-07 2.65e-02  -4.1 1.45e-03    -  1.00e+00 1.00e+00f  1
 182  1.5771796e+02 5.05e-08 4.20e-02  -4.0 1.46e-03    -  1.00e+00 1.00e+00f  1
 183  1.5761460e+02 1.22e-07 4.78e-02  -4.1 1.48e-03    -  1.00e+00 1.00e+00f  1
 184  1.5761392e+02 5.78e-08 2.56e-02  -4.1 8.38e-04    -  1.00e+00 1.00e+00h  1
 185  1.5771762e+02 4.20e-08 1.31e-02  -4.0 1.48e-03    -  1.00e+00 1.00e+00f  1
 186  1.5761469e+02 2.09e-07 5.69e-02  -4.1 1.71e-03    -  1.00e+00 1.00e+00f  1
 187  1.5761404e+02 1.81e-07 1.60e-02  -4.1 1.25e-03    -  1.00e+00 1.00e+00h  1
 188  1.5761423e+02 5.83e-09 2.98e-03  -4.1 2.27e-04    -  1.00e+00 1.00e+00h  1
 189  1.5771756e+02 3.54e-08 8.55e-03  -4.0 1.45e-03    -  1.00e+00 1.00e+00f  1
iter    objective    inf_pr   inf_du lg(mu)  ||d||  lg(rg) alpha_du alpha_pr  ls
 190  1.5761435e+02 5.04e-08 4.34e-02  -4.1 1.54e-03    -  1.00e+00 1.00e+00f  1
 191  1.5761341e+02 1.48e-07 5.21e-02  -4.1 1.82e-03    -  1.00e+00 1.00e+00h  1
 192  1.5771883e+02 3.61e-07 5.04e-02  -4.0 2.07e-03    -  1.00e+00 1.00e+00f  1
 193  1.5761413e+02 2.14e-07 2.99e-02  -4.1 2.40e-03    -  1.00e+00 1.00e+00f  1
 194  1.5761365e+02 5.11e-08 4.63e-02  -4.1 1.41e-03    -  1.00e+00 1.00e+00h  1
 195  1.5771747e+02 1.13e-07 1.78e-02  -4.0 1.59e-03    -  1.00e+00 1.00e+00f  1
 196  1.5761414e+02 1.47e-07 3.69e-02  -4.1 1.45e-03    -  1.00e+00 1.00e+00f  1
 197  1.5761316e+02 6.50e-08 4.00e-02  -4.1 1.06e-03    -  1.00e+00 1.00e+00h  1
 198  1.5771687e+02 5.97e-08 3.60e-02  -4.0 1.45e-03    -  1.00e+00 1.00e+00f  1
 199  1.5761371e+02 1.09e-07 5.53e-02  -4.1 1.76e-03    -  1.00e+00 1.00e+00f  1
iter    objective    inf_pr   inf_du lg(mu)  ||d||  lg(rg) alpha_du alpha_pr  ls
 200  1.5761346e+02 4.74e-08 4.09e-02  -4.1 1.36e-03    -  1.00e+00 1.00e+00h  1
 201  1.5761345e+02 8.95e-08 2.40e-02  -4.1 9.24e-04    -  1.00e+00 1.00e+00h  1
 202  1.5761343e+02 1.01e-08 2.86e-03  -4.1 3.71e-04    -  1.00e+00 1.00e+00h  1
 203  1.5771682e+02 3.49e-08 1.64e-02  -4.0 1.45e-03    -  1.00e+00 1.00e+00f  1
 204  1.5761441e+02 1.64e-07 3.47e-02  -4.1 2.38e-03    -  1.00e+00 1.00e+00f  1
 205  1.5761326e+02 1.13e-07 2.52e-02  -4.1 9.54e-04    -  1.00e+00 1.00e+00h  1
 206  1.5761331e+02 1.70e-08 4.61e-03  -4.1 4.72e-04    -  1.00e+00 1.00e+00h  1
 207  1.5771712e+02 5.12e-08 1.34e-02  -4.0 1.58e-03    -  1.00e+00 1.00e+00f  1
 208  1.5761511e+02 2.48e-07 9.31e-02  -4.1 3.05e-03    -  1.00e+00 1.00e+00f  1
 209  1.5761310e+02 1.92e-07 1.37e-02  -4.1 1.70e-03    -  1.00e+00 1.00e+00h  1
iter    objective    inf_pr   inf_du lg(mu)  ||d||  lg(rg) alpha_du alpha_pr  ls
 210  1.5771710e+02 5.47e-08 1.88e-02  -4.0 1.64e-03    -  1.00e+00 1.00e+00f  1
 211  1.5761553e+02 3.83e-07 1.10e-01  -4.1 2.71e-03    -  1.00e+00 1.00e+00f  1
 212  1.5761303e+02 4.94e-07 1.01e-02  -4.1 2.07e-03    -  1.00e+00 1.00e+00h  1
 213  1.5771717e+02 4.24e-08 8.62e-03  -4.0 1.72e-03    -  1.00e+00 1.00e+00f  1
 214  1.5761443e+02 1.84e-07 5.81e-02  -4.1 2.50e-03    -  1.00e+00 1.00e+00f  1
 215  1.5761294e+02 1.25e-07 1.57e-02  -4.1 1.34e-03    -  1.00e+00 1.00e+00h  1
 216  1.5771716e+02 3.93e-08 1.48e-02  -4.0 1.81e-03    -  1.00e+00 1.00e+00f  1
 217  1.5761792e+02 5.12e-07 1.24e-01  -4.1 3.09e-03    -  1.00e+00 1.00e+00f  1
 218  1.5761305e+02 3.57e-07 9.32e-03  -4.1 2.76e-03    -  1.00e+00 1.00e+00h  1
 219  1.5761318e+02 1.29e-09 1.67e-03  -4.1 1.27e-04    -  1.00e+00 1.00e+00h  1
iter    objective    inf_pr   inf_du lg(mu)  ||d||  lg(rg) alpha_du alpha_pr  ls
 220  1.5771709e+02 3.57e-08 2.05e-02  -4.0 1.80e-03    -  1.00e+00 1.00e+00f  1
 221  1.5761441e+02 3.29e-07 7.78e-02  -4.1 3.38e-03    -  1.00e+00 1.00e+00f  1
 222  1.5761289e+02 1.65e-07 2.57e-02  -4.1 1.59e-03    -  1.00e+00 1.00e+00h  1
 223  1.5771714e+02 3.97e-08 1.50e-02  -4.0 1.91e-03    -  1.00e+00 1.00e+00f  1
 224  1.5761621e+02 4.87e-07 1.33e-01  -4.1 2.19e-03    -  1.00e+00 1.00e+00f  1
 225  1.5761291e+02 2.56e-07 1.39e-02  -4.1 1.91e-03    -  1.00e+00 1.00e+00h  1
 226  1.5761314e+02 5.16e-10 1.16e-03  -4.1 9.64e-05    -  1.00e+00 1.00e+00h  1
 227  1.5771701e+02 2.57e-08 1.75e-02  -4.0 1.89e-03    -  1.00e+00 1.00e+00f  1
 228  1.5761450e+02 1.45e-07 6.02e-02  -4.1 2.06e-03    -  1.00e+00 1.00e+00f  1
 229  1.5761300e+02 9.55e-08 1.59e-02  -4.1 1.74e-03    -  1.00e+00 1.00e+00h  1
iter    objective    inf_pr   inf_du lg(mu)  ||d||  lg(rg) alpha_du alpha_pr  ls
 230  1.5761316e+02 1.15e-08 4.14e-03  -4.1 2.94e-04    -  1.00e+00 1.00e+00h  1
 231  1.5761314e+02 7.69e-10 7.10e-04  -4.1 1.12e-04    -  1.00e+00 1.00e+00h  1

Number of Iterations....: 231

                                   (scaled)                 (unscaled)
Objective...............:   5.9869724240172317e+01    1.5761314090066929e+02
Dual infeasibility......:   7.0982028400246033e-04    1.8686741229645401e-03
Constraint violation....:   7.6895558825950549e-10    7.6895558825950549e-10
Variable bound violation:   0.0000000000000000e+00    0.0000000000000000e+00
Complementarity.........:   8.0020198303903202e-05    2.1066131421580594e-04
Overall NLP error.......:   7.0982028400246033e-04    1.8686741229645401e-03


Number of objective function evaluations             = 339
Number of objective gradient evaluations             = 232
Number of equality constraint evaluations            = 339
Number of inequality constraint evaluations          = 339
Number of equality constraint Jacobian evaluations   = 232
Number of inequality constraint Jacobian evaluations = 232
Number of Lagrangian Hessian evaluations             = 0
Total seconds in IPOPT                               = 23.370

EXIT: Optimal Solution Found.
